NAME : see file name
COMMENT : Optimum tour with cost 1398072
TYPE : TOUR
DIMENSION : 100
TYPE : TOUR
TOUR_SECTION
90
87
37
40
43
46
49
52
55
58
61
64
67
84
81
70
73
76
2
5
8
11
14
17
20
23
26
29
32
35
38
41
44
47
50
53
56
59
94
91
88
85
82
62
65
68
71
79
74
77
3
6
9
12
15
18
21
24
27
30
33
36
39
42
45
48
51
54
57
60
63
66
69
83
80
72
75
78
1
4
7
10
13
16
19
22
25
28
31
34
86
89
92
95
98
100
97
99
96
93
-1
EOF
